p edge 86 1797
e 1 2
e 1 3
e 1 6
e 1 7
e 1 9
e 1 11
e 1 14
e 1 15
e 1 19
e 1 20
e 1 21
e 1 22
e 1 23
e 1 24
e 1 25
e 1 28
e 1 30
e 1 31
e 1 34
e 1 37
e 1 38
e 1 42
e 1 46
e 1 47
e 1 48
e 1 50
e 1 51
e 1 53
e 1 54
e 1 55
e 1 59
e 1 62
e 1 63
e 1 64
e 1 65
e 1 66
e 1 68
e 1 71
e 1 73
e 1 76
e 1 77
e 1 78
e 1 80
e 1 81
e 1 82
e 1 85
e 2 3
e 2 5
e 2 6
e 2 7
e 2 8
e 2 12
e 2 14
e 2 15
e 2 16
e 2 17
e 2 18
e 2 21
e 2 22
e 2 23
e 2 24
e 2 25
e 2 27
e 2 29
e 2 30
e 2 31
e 2 33
e 2 40
e 2 42
e 2 45
e 2 47
e 2 48
e 2 49
e 2 50
e 2 51
e 2 56
e 2 57
e 2 59
e 2 61
e 2 63
e 2 65
e 2 66
e 2 75
e 2 80
e 2 81
e 2 82
e 2 83
e 2 86
e 3 10
e 3 11
e 3 12
e 3 14
e 3 15
e 3 17
e 3 18
e 3 19
e 3 23
e 3 25
e 3 27
e 3 28
e 3 29
e 3 32
e 3 37
e 3 41
e 3 47
e 3 48
e 3 51
e 3 52
e 3 60
e 3 62
e 3 63
e 3 64
e 3 67
e 3 68
e 3 71
e 3 72
e 3 74
e 3 75
e 3 77
e 3 82
e 3 83
e 4 5
e 4 9
e 4 10
e 4 14
e 4 15
e 4 16
e 4 18
e 4 20
e 4 21
e 4 22
e 4 28
e 4 29
e 4 30
e 4 31
e 4 32
e 4 34
e 4 35
e 4 37
e 4 43
e 4 44
e 4 45
e 4 49
e 4 50
e 4 51
e 4 52
e 4 54
e 4 59
e 4 60
e 4 63
e 4 64
e 4 65
e 4 66
e 4 69
e 4 71
e 4 72
e 4 74
e 4 75
e 4 77
e 4 79
e 4 80
e 4 81
e 4 82
e 4 83
e 4 85
e 5 7
e 5 8
e 5 9
e 5 10
e 5 11
e 5 14
e 5 15
e 5 16
e 5 17
e 5 20
e 5 27
e 5 33
e 5 34
e 5 35
e 5 36
e 5 37
e 5 39
e 5 41
e 5 44
e 5 45
e 5 46
e 5 49
e 5 50
e 5 53
e 5 56
e 5 57
e 5 58
e 5 62
e 5 65
e 5 66
e 5 67
e 5 70
e 5 71
e 5 72
e 5 74
e 5 76
e 5 77
e 5 78
e 5 79
e 5 82
e 5 84
e 5 86
e 6 7
e 6 8
e 6 9
e 6 12
e 6 15
e 6 16
e 6 18
e 6 21
e 6 23
e 6 24
e 6 25
e 6 26
e 6 27
e 6 29
e 6 31
e 6 33
e 6 34
e 6 35
e 6 41
e 6 42
e 6 45
e 6 46
e 6 49
e 6 55
e 6 57
e 6 58
e 6 59
e 6 60
e 6 61
e 6 62
e 6 63
e 6 64
e 6 66
e 6 70
e 6 71
e 6 72
e 6 73
e 6 74
e 6 75
e 6 76
e 6 78
e 6 80
e 6 81
e 6 86
e 7 8
e 7 13
e 7 14
e 7 18
e 7 20
e 7 24
e 7 25
e 7 28
e 7 30
e 7 32
e 7 35
e 7 37
e 7 38
e 7 47
e 7 48
e 7 52
e 7 53
e 7 57
e 7 59
e 7 61
e 7 62
e 7 64
e 7 71
e 7 72
e 7 75
e 7 78
e 7 81
e 7 83
e 7 85
e 8 9
e 8 11
e 8 12
e 8 14
e 8 18
e 8 22
e 8 24
e 8 25
e 8 29
e 8 31
e 8 33
e 8 37
e 8 38
e 8 39
e 8 40
e 8 45
e 8 47
e 8 48
e 8 52
e 8 53
e 8 55
e 8 56
e 8 57
e 8 58
e 8 59
e 8 61
e 8 63
e 8 65
e 8 68
e 8 70
e 8 71
e 8 72
e 8 74
e 8 76
e 8 77
e 8 79
e 8 80
e 8 81
e 8 83
e 8 84
e 8 85
e 9 10
e 9 13
e 9 16
e 9 23
e 9 24
e 9 25
e 9 28
e 9 32
e 9 33
e 9 35
e 9 37
e 9 39
e 9 41
e 9 42
e 9 45
e 9 46
e 9 48
e 9 49
e 9 50
e 9 55
e 9 57
e 9 58
e 9 59
e 9 60
e 9 64
e 9 66
e 9 67
e 9 68
e 9 69
e 9 71
e 9 72
e 9 73
e 9 76
e 9 78
e 9 79
e 9 80
e 9 83
e 9 85
e 9 86
e 10 13
e 10 14
e 10 15
e 10 17
e 10 18
e 10 20
e 10 21
e 10 22
e 10 27
e 10 29
e 10 30
e 10 31
e 10 32
e 10 35
e 10 37
e 10 38
e 10 39
e 10 40
e 10 42
e 10 48
e 10 49
e 10 53
e 10 55
e 10 57
e 10 58
e 10 59
e 10 63
e 10 65
e 10 66
e 10 68
e 10 69
e 10 71
e 10 74
e 10 75
e 10 76
e 10 77
e 10 80
e 10 82
e 10 83
e 10 85
e 11 12
e 11 13
e 11 15
e 11 19
e 11 20
e 11 22
e 11 32
e 11 34
e 11 35
e 11 38
e 11 43
e 11 44
e 11 46
e 11 48
e 11 49
e 11 50
e 11 52
e 11 55
e 11 56
e 11 57
e 11 58
e 11 60
e 11 61
e 11 64
e 11 67
e 11 68
e 11 70
e 11 71
e 11 72
e 11 74
e 11 77
e 11 81
e 11 82
e 11 83
e 11 84
e 11 85
e 11 86
e 12 14
e 12 15
e 12 16
e 12 17
e 12 22
e 12 23
e 12 24
e 12 25
e 12 26
e 12 27
e 12 28
e 12 29
e 12 30
e 12 33
e 12 36
e 12 39
e 12 40
e 12 42
e 12 43
e 12 45
e 12 49
e 12 50
e 12 53
e 12 55
e 12 57
e 12 58
e 12 61
e 12 62
e 12 63
e 12 64
e 12 65
e 12 67
e 12 70
e 12 75
e 12 78
e 12 79
e 12 80
e 12 82
e 12 85
e 13 15
e 13 18
e 13 19
e 13 20
e 13 23
e 13 26
e 13 29
e 13 30
e 13 33
e 13 38
e 13 39
e 13 40
e 13 41
e 13 44
e 13 46
e 13 47
e 13 50
e 13 57
e 13 60
e 13 61
e 13 62
e 13 68
e 13 69
e 13 70
e 13 72
e 13 74
e 13 76
e 13 77
e 13 81
e 13 82
e 13 84
e 14 15
e 14 17
e 14 19
e 14 20
e 14 21
e 14 24
e 14 28
e 14 29
e 14 30
e 14 32
e 14 33
e 14 34
e 14 35
e 14 36
e 14 37
e 14 44
e 14 48
e 14 50
e 14 51
e 14 52
e 14 53
e 14 54
e 14 56
e 14 58
e 14 60
e 14 62
e 14 67
e 14 68
e 14 71
e 14 73
e 14 75
e 14 79
e 14 80
e 14 82
e 14 83
e 14 84
e 14 85
e 14 86
e 15 17
e 15 18
e 15 21
e 15 23
e 15 24
e 15 27
e 15 28
e 15 31
e 15 33
e 15 34
e 15 43
e 15 45
e 15 47
e 15 50
e 15 56
e 15 57
e 15 58
e 15 60
e 15 67
e 15 70
e 15 74
e 15 75
e 15 77
e 15 81
e 15 84
e 15 85
e 16 17
e 16 18
e 16 19
e 16 20
e 16 21
e 16 22
e 16 23
e 16 24
e 16 25
e 16 27
e 16 31
e 16 32
e 16 34
e 16 35
e 16 36
e 16 37
e 16 40
e 16 44
e 16 46
e 16 49
e 16 50
e 16 51
e 16 54
e 16 55
e 16 59
e 16 60
e 16 61
e 16 62
e 16 65
e 16 66
e 16 67
e 16 68
e 16 69
e 16 70
e 16 71
e 16 73
e 16 75
e 16 78
e 16 79
e 16 82
e 16 84
e 16 85
e 16 86
e 17 23
e 17 24
e 17 26
e 17 28
e 17 29
e 17 33
e 17 34
e 17 35
e 17 37
e 17 38
e 17 40
e 17 42
e 17 43
e 17 44
e 17 46
e 17 48
e 17 49
e 17 50
e 17 52
e 17 54
e 17 55
e 17 57
e 17 59
e 17 60
e 17 62
e 17 63
e 17 64
e 17 68
e 17 76
e 17 77
e 17 83
e 17 84
e 17 86
e 18 25
e 18 26
e 18 28
e 18 31
e 18 32
e 18 34
e 18 35
e 18 37
e 18 39
e 18 41
e 18 42
e 18 43
e 18 44
e 18 47
e 18 49
e 18 50
e 18 51
e 18 53
e 18 54
e 18 55
e 18 56
e 18 57
e 18 59
e 18 60
e 18 61
e 18 62
e 18 64
e 18 68
e 18 70
e 18 71
e 18 72
e 18 76
e 18 81
e 18 82
e 18 83
e 18 85
e 18 86
e 19 21
e 19 24
e 19 30
e 19 32
e 19 34
e 19 35
e 19 36
e 19 38
e 19 39
e 19 42
e 19 44
e 19 45
e 19 48
e 19 49
e 19 54
e 19 55
e 19 56
e 19 57
e 19 60
e 19 61
e 19 62
e 19 65
e 19 66
e 19 67
e 19 70
e 19 71
e 19 73
e 19 75
e 19 78
e 19 80
e 20 21
e 20 22
e 20 23
e 20 24
e 20 26
e 20 27
e 20 28
e 20 34
e 20 35
e 20 37
e 20 41
e 20 42
e 20 43
e 20 44
e 20 47
e 20 48
e 20 51
e 20 53
e 20 54
e 20 55
e 20 61
e 20 62
e 20 67
e 20 68
e 20 69
e 20 71
e 20 72
e 20 75
e 20 77
e 20 79
e 20 80
e 20 82
e 20 83
e 20 86
e 21 24
e 21 25
e 21 26
e 21 32
e 21 36
e 21 37
e 21 38
e 21 41
e 21 42
e 21 43
e 21 44
e 21 46
e 21 48
e 21 52
e 21 54
e 21 56
e 21 57
e 21 58
e 21 59
e 21 60
e 21 63
e 21 64
e 21 65
e 21 68
e 21 72
e 21 73
e 21 76
e 21 81
e 21 82
e 21 83
e 21 85
e 21 86
e 22 25
e 22 26
e 22 28
e 22 29
e 22 31
e 22 33
e 22 34
e 22 36
e 22 37
e 22 38
e 22 40
e 22 43
e 22 45
e 22 47
e 22 49
e 22 51
e 22 53
e 22 58
e 22 60
e 22 63
e 22 65
e 22 66
e 22 68
e 22 69
e 22 71
e 22 72
e 22 73
e 22 75
e 22 77
e 22 78
e 22 79
e 22 80
e 22 82
e 22 86
e 23 26
e 23 28
e 23 31
e 23 32
e 23 34
e 23 36
e 23 38
e 23 44
e 23 45
e 23 46
e 23 48
e 23 49
e 23 51
e 23 55
e 23 56
e 23 57
e 23 58
e 23 59
e 23 60
e 23 61
e 23 64
e 23 66
e 23 68
e 23 70
e 23 76
e 23 77
e 23 79
e 23 80
e 23 81
e 23 85
e 24 25
e 24 26
e 24 27
e 24 29
e 24 30
e 24 34
e 24 37
e 24 38
e 24 48
e 24 57
e 24 61
e 24 62
e 24 70
e 24 77
e 24 79
e 24 86
e 25 26
e 25 27
e 25 30
e 25 33
e 25 34
e 25 35
e 25 39
e 25 40
e 25 41
e 25 43
e 25 44
e 25 46
e 25 48
e 25 51
e 25 55
e 25 57
e 25 59
e 25 63
e 25 65
e 25 69
e 25 71
e 25 72
e 25 74
e 25 75
e 25 76
e 25 79
e 25 80
e 25 81
e 25 82
e 25 83
e 25 85
e 25 86
e 26 28
e 26 33
e 26 36
e 26 39
e 26 40
e 26 43
e 26 48
e 26 50
e 26 51
e 26 52
e 26 55
e 26 57
e 26 58
e 26 61
e 26 63
e 26 65
e 26 66
e 26 71
e 26 74
e 26 75
e 26 76
e 26 77
e 26 78
e 26 80
e 26 81
e 26 82
e 26 84
e 26 85
e 26 86
e 27 30
e 27 32
e 27 36
e 27 38
e 27 39
e 27 43
e 27 44
e 27 45
e 27 48
e 27 49
e 27 50
e 27 55
e 27 58
e 27 59
e 27 60
e 27 61
e 27 62
e 27 63
e 27 64
e 27 66
e 27 72
e 27 74
e 27 76
e 27 77
e 27 79
e 27 80
e 27 83
e 27 85
e 28 29
e 28 33
e 28 34
e 28 35
e 28 39
e 28 40
e 28 41
e 28 43
e 28 45
e 28 47
e 28 48
e 28 53
e 28 55
e 28 56
e 28 57
e 28 59
e 28 61
e 28 67
e 28 68
e 28 69
e 28 70
e 28 72
e 28 74
e 28 76
e 28 77
e 28 78
e 28 79
e 28 80
e 28 83
e 28 84
e 28 85
e 29 30
e 29 31
e 29 32
e 29 33
e 29 38
e 29 40
e 29 41
e 29 42
e 29 43
e 29 47
e 29 48
e 29 49
e 29 50
e 29 52
e 29 53
e 29 55
e 29 56
e 29 60
e 29 62
e 29 63
e 29 69
e 29 71
e 29 72
e 29 74
e 29 75
e 29 76
e 29 77
e 29 78
e 29 80
e 29 82
e 30 31
e 30 33
e 30 36
e 30 37
e 30 38
e 30 39
e 30 41
e 30 43
e 30 44
e 30 48
e 30 49
e 30 51
e 30 53
e 30 55
e 30 56
e 30 60
e 30 62
e 30 64
e 30 66
e 30 67
e 30 68
e 30 69
e 30 70
e 30 72
e 30 76
e 30 80
e 30 82
e 30 83
e 30 85
e 30 86
e 31 32
e 31 33
e 31 36
e 31 37
e 31 39
e 31 44
e 31 45
e 31 46
e 31 47
e 31 50
e 31 51
e 31 55
e 31 56
e 31 57
e 31 63
e 31 66
e 31 67
e 31 68
e 31 69
e 31 70
e 31 73
e 31 77
e 31 79
e 31 84
e 31 85
e 31 86
e 32 33
e 32 35
e 32 37
e 32 38
e 32 40
e 32 42
e 32 43
e 32 50
e 32 51
e 32 54
e 32 56
e 32 57
e 32 61
e 32 64
e 32 66
e 32 67
e 32 68
e 32 69
e 32 72
e 32 75
e 32 77
e 32 78
e 32 79
e 32 80
e 32 81
e 32 82
e 32 83
e 32 84
e 32 86
e 33 36
e 33 37
e 33 38
e 33 39
e 33 41
e 33 44
e 33 46
e 33 48
e 33 51
e 33 54
e 33 58
e 33 59
e 33 61
e 33 63
e 33 65
e 33 67
e 33 70
e 33 71
e 33 72
e 33 75
e 33 76
e 33 81
e 33 83
e 33 86
e 34 36
e 34 38
e 34 43
e 34 45
e 34 50
e 34 51
e 34 52
e 34 53
e 34 54
e 34 55
e 34 56
e 34 57
e 34 58
e 34 61
e 34 63
e 34 64
e 34 65
e 34 68
e 34 71
e 34 75
e 34 76
e 34 78
e 34 80
e 34 81
e 34 82
e 34 84
e 35 36
e 35 37
e 35 41
e 35 42
e 35 44
e 35 45
e 35 51
e 35 52
e 35 53
e 35 54
e 35 55
e 35 58
e 35 62
e 35 64
e 35 67
e 35 72
e 35 76
e 35 79
e 35 82
e 35 85
e 35 86
e 36 38
e 36 39
e 36 40
e 36 41
e 36 42
e 36 43
e 36 47
e 36 48
e 36 49
e 36 52
e 36 56
e 36 57
e 36 60
e 36 61
e 36 62
e 36 63
e 36 69
e 36 73
e 36 74
e 36 75
e 36 76
e 36 78
e 36 79
e 36 81
e 36 82
e 36 83
e 36 84
e 36 86
e 37 38
e 37 39
e 37 40
e 37 41
e 37 43
e 37 47
e 37 48
e 37 50
e 37 53
e 37 57
e 37 59
e 37 60
e 37 61
e 37 63
e 37 66
e 37 70
e 37 71
e 37 72
e 37 73
e 37 74
e 37 76
e 37 77
e 37 78
e 37 81
e 37 83
e 37 84
e 37 86
e 38 39
e 38 41
e 38 43
e 38 46
e 38 50
e 38 51
e 38 53
e 38 55
e 38 56
e 38 58
e 38 59
e 38 64
e 38 65
e 38 66
e 38 70
e 38 71
e 38 72
e 38 73
e 38 74
e 38 75
e 38 76
e 38 77
e 38 80
e 38 82
e 38 83
e 38 85
e 38 86
e 39 42
e 39 43
e 39 44
e 39 46
e 39 47
e 39 48
e 39 50
e 39 51
e 39 52
e 39 55
e 39 56
e 39 57
e 39 58
e 39 60
e 39 63
e 39 65
e 39 70
e 39 71
e 39 72
e 39 74
e 39 79
e 39 80
e 39 81
e 39 85
e 40 41
e 40 42
e 40 49
e 40 50
e 40 54
e 40 56
e 40 57
e 40 59
e 40 60
e 40 61
e 40 64
e 40 65
e 40 68
e 40 70
e 40 71
e 40 72
e 40 73
e 40 74
e 40 75
e 40 76
e 40 82
e 40 83
e 40 84
e 41 45
e 41 46
e 41 47
e 41 53
e 41 56
e 41 59
e 41 65
e 41 66
e 41 68
e 41 72
e 41 74
e 41 75
e 41 76
e 41 82
e 41 85
e 41 86
e 42 43
e 42 45
e 42 46
e 42 47
e 42 49
e 42 50
e 42 54
e 42 56
e 42 59
e 42 60
e 42 62
e 42 63
e 42 64
e 42 65
e 42 66
e 42 67
e 42 68
e 42 69
e 42 70
e 42 73
e 42 74
e 42 75
e 42 77
e 42 78
e 42 83
e 42 85
e 43 48
e 43 51
e 43 53
e 43 54
e 43 55
e 43 57
e 43 58
e 43 62
e 43 64
e 43 65
e 43 67
e 43 69
e 43 71
e 43 72
e 43 73
e 43 77
e 43 80
e 43 82
e 43 83
e 43 84
e 44 45
e 44 47
e 44 48
e 44 49
e 44 50
e 44 51
e 44 56
e 44 57
e 44 62
e 44 63
e 44 64
e 44 65
e 44 67
e 44 68
e 44 69
e 44 71
e 44 72
e 44 77
e 44 79
e 44 82
e 44 85
e 44 86
e 45 47
e 45 48
e 45 50
e 45 52
e 45 55
e 45 56
e 45 57
e 45 58
e 45 60
e 45 62
e 45 63
e 45 66
e 45 67
e 45 70
e 45 72
e 45 73
e 45 74
e 45 77
e 45 78
e 45 79
e 45 80
e 45 81
e 45 84
e 46 49
e 46 50
e 46 55
e 46 57
e 46 60
e 46 61
e 46 66
e 46 68
e 46 69
e 46 70
e 46 71
e 46 72
e 46 74
e 46 77
e 46 80
e 46 81
e 46 82
e 46 83
e 46 85
e 46 86
e 47 48
e 47 49
e 47 50
e 47 58
e 47 59
e 47 61
e 47 62
e 47 63
e 47 66
e 47 69
e 47 70
e 47 74
e 47 75
e 47 77
e 47 79
e 47 81
e 47 82
e 47 83
e 48 49
e 48 51
e 48 55
e 48 61
e 48 62
e 48 66
e 48 67
e 48 68
e 48 69
e 48 71
e 48 73
e 48 80
e 48 82
e 48 85
e 48 86
e 49 55
e 49 56
e 49 58
e 49 60
e 49 63
e 49 64
e 49 65
e 49 69
e 49 70
e 49 71
e 49 72
e 49 73
e 49 74
e 49 78
e 49 80
e 49 82
e 49 83
e 49 84
e 49 86
e 50 52
e 50 59
e 50 60
e 50 61
e 50 63
e 50 70
e 50 71
e 50 75
e 50 76
e 50 77
e 50 78
e 50 80
e 50 83
e 50 84
e 50 85
e 50 86
e 51 54
e 51 55
e 51 56
e 51 57
e 51 58
e 51 59
e 51 61
e 51 62
e 51 63
e 51 65
e 51 66
e 51 68
e 51 69
e 51 70
e 51 71
e 51 73
e 51 76
e 51 79
e 51 80
e 51 83
e 51 85
e 52 53
e 52 54
e 52 55
e 52 56
e 52 57
e 52 60
e 52 62
e 52 63
e 52 64
e 52 65
e 52 68
e 52 69
e 52 70
e 52 76
e 52 79
e 52 81
e 52 82
e 52 84
e 52 86
e 53 54
e 53 55
e 53 58
e 53 60
e 53 61
e 53 62
e 53 63
e 53 64
e 53 65
e 53 66
e 53 67
e 53 70
e 53 73
e 53 74
e 53 75
e 53 77
e 53 78
e 53 86
e 54 56
e 54 58
e 54 59
e 54 62
e 54 68
e 54 69
e 54 71
e 54 72
e 54 73
e 54 74
e 54 75
e 54 76
e 54 78
e 54 79
e 54 80
e 54 81
e 54 82
e 54 84
e 54 85
e 54 86
e 55 56
e 55 57
e 55 62
e 55 64
e 55 65
e 55 66
e 55 68
e 55 69
e 55 70
e 55 71
e 55 72
e 55 79
e 55 80
e 55 83
e 55 84
e 55 85
e 56 57
e 56 62
e 56 65
e 56 67
e 56 69
e 56 70
e 56 73
e 56 74
e 56 75
e 56 77
e 56 78
e 56 80
e 56 84
e 56 86
e 57 59
e 57 61
e 57 62
e 57 63
e 57 66
e 57 68
e 57 70
e 57 71
e 57 73
e 57 74
e 57 79
e 57 80
e 57 82
e 57 83
e 57 84
e 57 86
e 58 62
e 58 63
e 58 64
e 58 65
e 58 66
e 58 69
e 58 76
e 58 78
e 58 83
e 58 84
e 58 86
e 59 61
e 59 62
e 59 63
e 59 64
e 59 67
e 59 69
e 59 73
e 59 74
e 59 75
e 59 77
e 59 78
e 59 80
e 59 81
e 60 62
e 60 63
e 60 65
e 60 68
e 60 69
e 60 71
e 60 72
e 60 73
e 60 75
e 60 77
e 60 78
e 60 80
e 60 83
e 60 86
e 61 62
e 61 65
e 61 66
e 61 67
e 61 68
e 61 69
e 61 70
e 61 72
e 61 73
e 61 77
e 61 84
e 61 85
e 62 63
e 62 66
e 62 67
e 62 69
e 62 70
e 62 71
e 62 72
e 62 74
e 62 76
e 62 77
e 62 79
e 62 80
e 62 81
e 62 83
e 62 84
e 62 86
e 63 64
e 63 66
e 63 67
e 63 71
e 63 77
e 63 80
e 63 82
e 63 84
e 64 65
e 64 70
e 64 73
e 64 74
e 64 75
e 64 82
e 64 85
e 64 86
e 65 68
e 65 72
e 65 73
e 65 75
e 65 82
e 65 84
e 65 86
e 66 67
e 66 70
e 66 72
e 66 74
e 66 76
e 66 77
e 66 79
e 66 80
e 66 83
e 66 84
e 67 69
e 67 70
e 67 77
e 67 78
e 67 83
e 67 84
e 68 69
e 68 70
e 68 72
e 68 76
e 68 77
e 68 78
e 68 79
e 68 81
e 68 83
e 68 84
e 68 86
e 69 71
e 69 73
e 69 74
e 69 81
e 70 72
e 70 73
e 70 74
e 70 75
e 70 76
e 70 77
e 70 78
e 70 83
e 71 73
e 71 74
e 71 77
e 71 79
e 71 81
e 71 83
e 71 85
e 71 86
e 72 73
e 72 74
e 72 76
e 72 78
e 72 82
e 72 84
e 72 85
e 73 74
e 73 76
e 73 77
e 73 79
e 73 80
e 73 82
e 74 75
e 74 76
e 74 79
e 74 81
e 74 82
e 74 86
e 75 79
e 75 80
e 75 81
e 75 82
e 75 83
e 75 84
e 75 86
e 76 77
e 76 79
e 76 80
e 76 82
e 76 83
e 76 85
e 77 79
e 77 86
e 78 79
e 78 83
e 79 80
e 79 83
e 79 85
e 79 86
e 80 82
e 80 83
e 80 84
e 81 82
e 81 84
e 81 85
e 82 85
